%chk=f_CHK.chk
# freq b3lyp/6-31g(d) pop=full gfinput iop(3/33=1)

Title Card Required

0 1
COORD

