%chk=C[CH2]3.chk
# opt ub3lyp/6-31g(d) pop=full gfinput iop(3/33=1)

Title Card Required

0 3
 C                  0.00000000    0.00000000   -0.00044300
 C                  0.00000000    1.22570500   -0.70737900
 H                  0.00000000    1.24893700   -1.79228100
 C                  0.00000000   -1.22570500   -0.70737900
 H                  0.00000000   -1.24893700   -1.79228100
 C                  0.00000000    0.00000000    1.41528100
 H                  0.00000000   -2.17641200   -0.18389800
 H                  0.00000000    2.17641200   -0.18389800
 H                  0.00000000   -0.92922800    1.97593600
 H                  0.00000000    0.92922800    1.97593600

