%chk=fCH2=CH2.chk
# ub3lyp/6-31g(d) pop=full gfinput iop(3/33=1)

Title Card Required

0 1
 C                0.00000000    0.00000000    0.66543400
 H                0.00000000    0.92367200    1.23955100
 H                0.00000000   -0.92367200    1.23955100
 C                0.00000000    0.00000000   -0.66543400
 H                0.00000000   -0.92367200   -1.23955100
 H                0.00000000    0.92367200   -1.23955100

