%chk=HCH0.chk
# b3lyp/6-31g(d) pop=full gfinput iop(3/33=1)

Title Card Required

1 2
 C                  0.00000000    0.00000000   -0.52895900
 H                  0.00000000    0.93788200   -1.12368000
 H                  0.00000000   -0.93788200   -1.12368000
 O                  0.00000000    0.00000000    0.67763900

