%chk=TCE.chk
# opt b3lyp/6-31g(d) pop=full gfinput iop(3/33=1)

Title Card Required

0 1
 C                  0.04040404    0.19191919    0.00000000
 C                  0.71567835    1.36689649    0.00000000
 C                 -0.05167882    2.70209796    0.00000000
 C                  2.25567835    1.36689649    0.00000000
 C                  0.80776121   -1.14328228    0.00000000
 C                 -1.49959596    0.19191919    0.00000000
 N                 -0.62301111    3.69621615    0.00000000
 N                 -2.64619596    0.19191919    0.00000000
 N                  1.37909350   -2.13740047    0.00000000
 N                  3.40227835    1.36689649    0.00000000

