%chk=C:\code\HFV\files\CR3\C(CH2)3.chk
# opt freq b3lyp/6-31g(d) pop=full gfinput

Title Card Required

0 2
 C                  0.00000000    0.00000000    0.00000000
 C                 -0.00000000    0.77000000   -1.33367912
 H                 -0.50440284    1.70493759   -1.20573585
 H                 -0.50440284    0.19172908   -2.07938719
 C                 -0.00000000   -1.54000000    0.00000000
 H                 -1.00880567   -1.89666667    0.00000000
 H                  0.50440284   -1.89666667    0.87365134
 C                 -0.00000000    0.77000000    1.33367912
 H                 -0.50440284    0.19172908    2.07938719
 H                 -0.50440284    1.70493759    1.20573585
 H                  1.00880567    0.94833333   -1.64256152
 H                  1.00880567    0.94833333    1.64256152
 H                  0.50440284   -1.89666667   -0.87365134

