%chk=C:\code\HFV\files\CR3\C(CH2)3.chk
# opt freq b3lyp/6-31g(d) pop=full gfinput

Title Card Required

0 1
 C                 -0.05254445    0.65612542   -0.23396812
 C                  0.72552571   -0.32070583    0.66714649
 H                  1.75558330   -0.52916181    0.46608063
 H                  0.23607532   -0.79095728    1.49431145
 C                 -1.57547799    0.77191389   -0.03682239
 H                 -1.98020597    1.57348987    0.54504633
 H                 -2.22889216    0.05078833   -0.48171323
 C                  0.55493971    1.19664394   -1.54179178
 H                 -0.05076973    1.76050801   -2.22007887
 H                  1.58273230    1.00833494   -1.77218735

