%nprocshared=24
%mem=30GB
%chk=CPh3.chk
# opt freq ub3lyp/6-31g(d) pop=full gfinput

Title Card Required

0 2
 C                  0.00010200    0.00050500    0.00025400
 C                 -0.18585400   -1.45239100   -0.00004800
 C                  0.71514100   -2.31167500    0.67429500
 C                 -1.27416300   -2.05705700   -0.67442600
 C                  0.53448800   -3.69107700    0.67604600
 H                  1.54909900   -1.87980400    1.21832600
 C                 -1.44714800   -3.43747400   -0.67573300
 H                 -1.97235700   -1.42916600   -1.21871700
 C                 -0.54615500   -4.26514700    0.00029900
 H                  1.23651400   -4.32214700    1.21518600
 H                 -2.28549100   -3.87134500   -1.21488900
 H                 -0.68415300   -5.34294000    0.00041700
 C                 -1.16513100    0.88789400    0.00038600
 C                 -2.35921600    0.53740300    0.67564500
 C                 -1.14527800    2.13214500   -0.67487400
 C                 -3.46419400    1.38258900    0.67643800
 H                 -2.40107500   -0.39997000    1.22109000
 C                 -2.25483700    2.97132700   -0.67698800
 H                 -0.25262000    2.42252100   -1.21971700
 C                 -3.42199100    2.60470400   -0.00067500
 H                 -4.36139500    1.09005400    1.21607400
 H                 -2.21208100    3.91377700   -1.21710500
 H                 -4.28675900    3.26260500   -0.00111200
 C                  1.35133100    0.56573500   -0.00016100
 C                  2.41809200   -0.07319600   -0.67711600
 C                  1.64594100    1.77387300    0.67654800
 C                  3.70022800    0.46665300   -0.67842300
 H                  2.22196900   -0.99020400   -1.22351000
 C                  2.93104800    2.30665700    0.67839500
 H                  0.85558300    2.27862700    1.22294600
 C                  3.96769600    1.65902500    0.00018600
 H                  4.49443400   -0.04157600   -1.21944300
 H                  3.12743100    3.22872300    1.21968000
 H                  4.97029700    2.07788600    0.00049700

